
Gurobi 10.0.0 (linux64) logging started Tue Dec 13 19:30:29 2022

Set parameter LogFile to value "../results/k02_n100_d005/k02_n100_d010_pm1s_100.1_BQO_log.txt"
Gurobi Optimizer version 10.0.0 build v10.0.0rc2 (linux64)

CPU model: Intel(R) Xeon(R) CPU E5-2630 v4 @ 2.20GHz, instruction set [SSE2|AVX|AVX2]
Thread count: 20 physical cores, 40 logical processors, using up to 10 threads

Optimize a model with 100 rows, 200 columns and 200 nonzeros
Model fingerprint: 0x50217356
Model has 990 quadratic objective terms
Variable types: 0 continuous, 200 integer (200 binary)
Coefficient statistics:
  Matrix range     [1e+00, 1e+00]
  Objective range  [0e+00, 0e+00]
  QObjective range [2e+00, 2e+00]
  Bounds range     [1e+00, 1e+00]
  RHS range        [1e+00, 1e+00]
Found heuristic solution: objective -0.0000000
Presolve removed 100 rows and 101 columns
Presolve time: 0.13s
Presolved: 483 rows, 582 columns, 1449 nonzeros
Variable types: 0 continuous, 582 integer (582 binary)

Root relaxation: objective 2.560000e+02, 96 iterations, 0.00 seconds (0.00 work units)

    Nodes    |    Current Node    |     Objective Bounds      |     Work
 Expl Unexpl |  Obj  Depth IntInf | Incumbent    BestBd   Gap | It/Node Time

     0     0  256.00000    0   99   -0.00000  256.00000      -     -    0s
H    0     0                      20.0000000  256.00000  1180%     -    0s
H    0     0                      95.0000000  256.00000   169%     -    0s
H    0     0                      98.0000000  256.00000   161%     -    0s
     0     0  205.16667    0  160   98.00000  205.16667   109%     -    0s
     0     0  195.00000    0  172   98.00000  195.00000  99.0%     -    0s
     0     0  195.00000    0  166   98.00000  195.00000  99.0%     -    0s
     0     2  195.00000    0  166   98.00000  195.00000  99.0%     -    0s
H   43    46                     101.0000000  173.15068  71.4%   193    0s
H  145   172                     107.0000000  173.15068  61.8%   131    0s
H  205   228                     108.0000000  173.15068  60.3%   117    0s
H  205   228                     109.0000000  173.15068  58.9%   117    0s
H  215   228                     115.0000000  173.15068  50.6%   116    0s
*  414   385              26     116.0000000  173.15068  49.3%  97.1    0s
H  505   464                     120.0000000  173.15068  44.3%  96.8    0s
H  613   551                     122.0000000  169.50000  38.9%  97.6    0s
H  637   551                     123.0000000  169.50000  37.8%  97.7    0s
H  702   592                     125.0000000  169.50000  35.6%   100    0s

Cutting planes:
  Gomory: 31
  MIR: 23
  Zero half: 227
  RLT: 38
  BQP: 8

Explored 945 nodes (94301 simplex iterations) in 1.00 seconds (0.86 work units)
Thread count was 10 (of 40 available processors)

Solution count 10: 125 123 122 ... 101

Time limit reached
Best objective 1.250000000000e+02, best bound 1.680000000000e+02, gap 34.4000%
